NAME : P = NP
TYPE : TSP
DIMENSION : 39
EDGE_WEIGHT_TYPE : EUC_2D
NODE_COORD_SECTION
0 303 184
1 235 317
2 176 209
3 454 144
4 336 213
5 207 630
6 92 133
7 260 447
8 52 96
9 44 16
10 250 132
11 53 65
12 308 311
13 368 8
14 137 722
15 243 20
16 30 279
17 663 140
18 460 26
19 67 405
20 17 2
21 7 422
22 232 231
23 132 61
24 192 66
25 24 795
26 29 542
27 67 532
28 18 347
29 140 15
30 356 249
31 63 937
32 648 15
33 94 42
34 183 84
35 228 27
36 370 856
37 261 276
38 522 61